p cnf 22 31
-1 17 -2 16 19 0 
-3 -2 16 20 0 
-4 14 -2 16 20 0 
-3 -2 16 21 0 
-2 16 20 0 
-5 -2 16 21 0 
-2 16 22 0 
-2 16 21 0 
-6 18 -2 16 22 0 
-1 17 -7 -2 16 21 0 
-1 17 -4 14 -2 16 20 0 
-7 -2 16 21 0 
-8 -2 16 20 0 
-9 -2 16 20 0 
-10 -2 16 21 0 
-2 16 -9 -11 15 21 0 
-11 15 -2 16 20 0 
-6 18 -2 16 20 0 
-5 -2 16 20 0 
-8 -2 16 21 0 
-12 -2 16 21 0 
-13 -14 4 20 0 
-13 -11 15 21 0 
-10 -2 16 20 0 
-1 17 -2 16 21 0 
-7 -2 16 20 0 
-15 11 -16 2 -17 1 20 0 
-15 11 -16 2 -18 6 21 0 
-15 11 -2 16 20 0 
-12 -2 16 20 0 
-9 -2 16 21 0 
